(set-info :smt-lib-version 2.6)
(set-logic UF)
(set-info :source |Benchmarks from the paper: "Extending Sledgehammer with SMT Solvers" by Jasmin Blanchette, Sascha Bohme, and Lawrence C. Paulson, CADE 2011.  Translated to SMT2 by Andrew Reynolds and Morgan Deters.|)
(set-info :category "industrial")
(set-info :status unknown)
(declare-sort S1 0)
(declare-sort S2 0)
(declare-sort S3 0)
(declare-sort S4 0)
(declare-sort S5 0)
(declare-sort S6 0)
(declare-sort S7 0)
(declare-sort S8 0)
(declare-sort S9 0)
(declare-sort S10 0)
(declare-fun f1 () S1)
(declare-fun f2 () S1)
(declare-fun f3 (S2) S1)
(declare-fun f4 (S3 S2) S2)
(declare-fun f5 (S4 S2) S3)
(declare-fun f6 () S4)
(declare-fun f7 () S4)
(declare-fun f8 () S3)
(declare-fun f9 () S3)
(declare-fun f10 () S3)
(declare-fun f11 () S2)
(declare-fun f12 () S2)
(declare-fun f13 () S2)
(declare-fun f14 (S5 S6) S2)
(declare-fun f15 () S5)
(declare-fun f16 () S6)
(declare-fun f17 (S2) S1)
(declare-fun f18 () S2)
(declare-fun f19 (S7 S6) S6)
(declare-fun f20 (S8 S6) S7)
(declare-fun f21 () S8)
(declare-fun f22 () S6)
(declare-fun f23 (S9 S2) S6)
(declare-fun f24 () S9)
(declare-fun f25 () S8)
(declare-fun f26 (S2 S2) S1)
(declare-fun f27 () S2)
(declare-fun f28 () S7)
(declare-fun f29 (S10 S2) S5)
(declare-fun f30 () S10)
(declare-fun f31 () S2)
(declare-fun f32 () S4)
(declare-fun f33 () S2)
(assert (not (= f1 f2)))
(assert (not (= (f3 (f4 (f5 f6 (f4 (f5 f7 (f4 (f5 f6 (f4 f8 (f4 f9 (f4 f9 (f4 f10 f11))))) f12)) f13)) (f4 (f5 f7 f13) (f14 f15 f16)))) f1)))
(assert (= (f17 (f4 (f5 f7 (f4 (f5 f6 (f4 f8 (f4 f9 (f4 f9 (f4 f10 f11))))) f12)) f13)) f1))
(assert (forall ((?v0 S2) (?v1 S2)) (=> (= (f3 ?v0) f1) (=> (= (f3 ?v1) f1) (= (f3 (f4 (f5 f6 ?v0) ?v1)) f1)))))
(assert (= (f3 (f4 (f5 f6 (f4 (f5 f7 (f4 (f5 f6 (f4 f8 (f4 f9 (f4 f9 (f4 f10 f11))))) f12)) f13)) f18)) f1))
(assert (forall ((?v0 S2)) (= (f4 (f5 f7 f13) (f4 f8 ?v0)) (f4 f8 (f4 (f5 f7 (f4 f10 f11)) ?v0)))))
(assert (forall ((?v0 S2)) (= (f4 (f5 f7 (f4 f8 ?v0)) f13) (f4 f8 (f4 (f5 f7 ?v0) (f4 f10 f11))))))
(assert (= (f4 (f5 f7 f13) f13) (f4 f8 (f4 f9 (f4 f10 f11)))))
(assert (= (f4 (f5 f7 f13) f13) (f4 f8 (f4 f9 (f4 f10 f11)))))
(assert (= (f19 (f20 f21 f22) f22) (f23 f24 (f4 f9 (f4 f10 f11)))))
(assert (forall ((?v0 S2)) (= (f4 (f5 f6 ?v0) (f4 f8 (f4 f9 (f4 f10 f11)))) (f4 (f5 f7 ?v0) ?v0))))
(assert (forall ((?v0 S2)) (= (f4 (f5 f6 ?v0) (f4 f8 (f4 f9 (f4 f10 f11)))) (f4 (f5 f7 ?v0) ?v0))))
(assert (forall ((?v0 S6)) (= (f19 (f20 f25 ?v0) (f23 f24 (f4 f9 (f4 f10 f11)))) (f19 (f20 f21 ?v0) ?v0))))
(assert (forall ((?v0 S2)) (= (f4 (f5 f6 (f4 f8 (f4 f9 (f4 f10 f11)))) ?v0) (f4 (f5 f7 ?v0) ?v0))))
(assert (forall ((?v0 S2)) (= (f4 (f5 f6 (f4 f8 (f4 f9 (f4 f10 f11)))) ?v0) (f4 (f5 f7 ?v0) ?v0))))
(assert (forall ((?v0 S6)) (= (f19 (f20 f25 (f23 f24 (f4 f9 (f4 f10 f11)))) ?v0) (f19 (f20 f21 ?v0) ?v0))))
(assert (forall ((?v0 S2)) (= (f4 (f5 f6 (f4 (f5 f7 f13) f13)) (f4 f8 ?v0)) (f4 f8 (f4 f9 ?v0)))))
(assert (forall ((?v0 S2) (?v1 S2)) (= (f4 (f5 f6 (f4 f10 ?v0)) ?v1) (f4 (f5 f7 (f4 f9 (f4 (f5 f6 ?v0) ?v1))) ?v1))))
(assert (= f13 (f4 f8 (f4 f10 f11))))
(assert (= (f26 f13 f18) f1))
(assert (forall ((?v0 S6) (?v1 S6) (?v2 S2)) (= (f4 (f5 f7 (f14 f15 ?v0)) (f4 (f5 f7 (f14 f15 ?v1)) ?v2)) (f4 (f5 f7 (f14 f15 (f19 (f20 f21 ?v0) ?v1))) ?v2))))
(assert (forall ((?v0 S6) (?v1 S6)) (= (f4 (f5 f7 (f14 f15 ?v0)) (f14 f15 ?v1)) (f14 f15 (f19 (f20 f21 ?v0) ?v1)))))
(assert (forall ((?v0 S6) (?v1 S6)) (= (f4 (f5 f6 (f14 f15 ?v0)) (f14 f15 ?v1)) (f14 f15 (f19 (f20 f25 ?v0) ?v1)))))
(assert (forall ((?v0 S6) (?v1 S6)) (= (f14 f15 (f19 (f20 f25 ?v0) ?v1)) (f4 (f5 f6 (f14 f15 ?v0)) (f14 f15 ?v1)))))
(assert (= (f14 f15 f22) f13))
(assert (forall ((?v0 S2) (?v1 S2)) (= (= (f4 f8 ?v0) (f4 f8 ?v1)) (= ?v0 ?v1))))
(assert (forall ((?v0 S2) (?v1 S2)) (let ((?v_0 (f4 f8 ?v0))) (= (= ?v_0 ?v1) (= ?v1 ?v_0)))))
(assert (forall ((?v0 S2) (?v1 S6)) (let ((?v_0 (f23 f24 ?v0))) (= (= ?v_0 ?v1) (= ?v1 ?v_0)))))
(assert (forall ((?v0 S2) (?v1 S2)) (= (= (f4 f10 ?v0) (f4 f10 ?v1)) (= ?v0 ?v1))))
(assert (= (= f11 f11) true))
(assert (forall ((?v0 S2) (?v1 S2)) (= (= (f4 f9 ?v0) (f4 f9 ?v1)) (= ?v0 ?v1))))
(assert (forall ((?v0 S2) (?v1 S2) (?v2 S2)) (let ((?v_0 (f5 f6 ?v0))) (= (f4 (f5 f6 (f4 ?v_0 ?v1)) ?v2) (f4 ?v_0 (f4 (f5 f6 ?v1) ?v2))))))
(assert (forall ((?v0 S2) (?v1 S2)) (= (f4 (f5 f6 ?v0) ?v1) (f4 (f5 f6 ?v1) ?v0))))
(assert (forall ((?v0 S2)) (= (f4 f8 ?v0) ?v0)))
(assert (forall ((?v0 S2) (?v1 S2) (?v2 S2)) (let ((?v_0 (f5 f7 ?v0))) (= (f4 (f5 f7 (f4 ?v_0 ?v1)) ?v2) (f4 ?v_0 (f4 (f5 f7 ?v1) ?v2))))))
(assert (forall ((?v0 S2) (?v1 S2) (?v2 S2)) (let ((?v_1 (f5 f7 ?v0)) (?v_0 (f5 f7 ?v1))) (= (f4 ?v_1 (f4 ?v_0 ?v2)) (f4 ?v_0 (f4 ?v_1 ?v2))))))
(assert (forall ((?v0 S2) (?v1 S2)) (= (f4 (f5 f7 ?v0) ?v1) (f4 (f5 f7 ?v1) ?v0))))
(assert (forall ((?v0 S6) (?v1 S6)) (= (= (f14 f15 ?v0) (f14 f15 ?v1)) (= ?v0 ?v1))))
(assert (forall ((?v0 S2)) (= (= (f4 (f5 f7 ?v0) ?v0) f27) (= ?v0 f27))))
(assert (forall ((?v0 S2)) (= (= (f4 f10 ?v0) f11) false)))
(assert (forall ((?v0 S2)) (= (= f11 (f4 f10 ?v0)) false)))
(assert (forall ((?v0 S2) (?v1 S2)) (= (= (f4 f10 ?v0) (f4 f9 ?v1)) false)))
(assert (forall ((?v0 S2) (?v1 S2)) (= (= (f4 f9 ?v0) (f4 f10 ?v1)) false)))
(assert (forall ((?v0 S2)) (= (= (f4 f9 ?v0) f11) (= ?v0 f11))))
(assert (forall ((?v0 S2)) (= (= f11 (f4 f9 ?v0)) (= f11 ?v0))))
(assert (= (f4 f9 f11) f11))
(assert (forall ((?v0 S2)) (= (f4 (f5 f6 f11) ?v0) f11)))
(assert (forall ((?v0 S2) (?v1 S2)) (= (f4 (f5 f6 (f4 f9 ?v0)) ?v1) (f4 f9 (f4 (f5 f6 ?v0) ?v1)))))
(assert (forall ((?v0 S2)) (= (f4 (f5 f7 ?v0) f11) ?v0)))
(assert (forall ((?v0 S2)) (= (f4 (f5 f7 f11) ?v0) ?v0)))
(assert (forall ((?v0 S2) (?v1 S2)) (= (f4 (f5 f7 (f4 f9 ?v0)) (f4 f9 ?v1)) (f4 f9 (f4 (f5 f7 ?v0) ?v1)))))
(assert (forall ((?v0 S2)) (= (f4 f9 ?v0) (f4 (f5 f7 ?v0) ?v0))))
(assert (forall ((?v0 S2)) (= (f4 (f5 f6 ?v0) f13) ?v0)))
(assert (forall ((?v0 S2)) (= (f4 (f5 f6 f13) ?v0) ?v0)))
(assert (forall ((?v0 S2) (?v1 S2)) (= (f4 (f5 f6 (f4 f8 ?v0)) (f4 f8 ?v1)) (f4 f8 (f4 (f5 f6 ?v0) ?v1)))))
(assert (forall ((?v0 S2) (?v1 S2) (?v2 S2)) (= (f4 (f5 f6 (f4 (f5 f7 ?v0) ?v1)) ?v2) (f4 (f5 f7 (f4 (f5 f6 ?v0) ?v2)) (f4 (f5 f6 ?v1) ?v2)))))
(assert (forall ((?v0 S2) (?v1 S2) (?v2 S2)) (let ((?v_0 (f5 f6 ?v0))) (= (f4 ?v_0 (f4 (f5 f7 ?v1) ?v2)) (f4 (f5 f7 (f4 ?v_0 ?v1)) (f4 ?v_0 ?v2))))))
(assert (forall ((?v0 S2) (?v1 S2)) (= (f4 (f5 f7 (f4 f8 ?v0)) (f4 f8 ?v1)) (f4 f8 (f4 (f5 f7 ?v0) ?v1)))))
(assert (forall ((?v0 S2) (?v1 S2) (?v2 S2)) (let ((?v_0 (f4 f8 ?v2))) (= (f4 (f5 f6 (f4 (f5 f7 ?v0) ?v1)) ?v_0) (f4 (f5 f7 (f4 (f5 f6 ?v0) ?v_0)) (f4 (f5 f6 ?v1) ?v_0))))))
(assert (forall ((?v0 S6) (?v1 S6) (?v2 S2)) (let ((?v_0 (f23 f24 ?v2))) (= (f19 (f20 f25 (f19 (f20 f21 ?v0) ?v1)) ?v_0) (f19 (f20 f21 (f19 (f20 f25 ?v0) ?v_0)) (f19 (f20 f25 ?v1) ?v_0))))))
(assert (forall ((?v0 S2) (?v1 S2) (?v2 S2)) (let ((?v_0 (f5 f6 (f4 f8 ?v0)))) (= (f4 ?v_0 (f4 (f5 f7 ?v1) ?v2)) (f4 (f5 f7 (f4 ?v_0 ?v1)) (f4 ?v_0 ?v2))))))
(assert (forall ((?v0 S2) (?v1 S6) (?v2 S6)) (let ((?v_0 (f20 f25 (f23 f24 ?v0)))) (= (f19 ?v_0 (f19 (f20 f21 ?v1) ?v2)) (f19 (f20 f21 (f19 ?v_0 ?v1)) (f19 ?v_0 ?v2))))))
(assert (= (f23 f24 f11) f16))
(assert (= (f4 f8 f11) f27))
(assert (= (f4 f8 f11) f27))
(assert (forall ((?v0 S2)) (= (f4 (f5 f7 (f4 f8 f11)) ?v0) ?v0)))
(assert (forall ((?v0 S2)) (= (f4 (f5 f7 ?v0) (f4 f8 f11)) ?v0)))
(assert (forall ((?v0 S2) (?v1 S2) (?v2 S2)) (= (f4 (f5 f6 (f4 f8 ?v0)) (f4 (f5 f6 (f4 f8 ?v1)) ?v2)) (f4 (f5 f6 (f4 f8 (f4 (f5 f6 ?v0) ?v1))) ?v2))))
(assert (forall ((?v0 S2) (?v1 S2)) (= (f4 (f5 f6 (f4 f8 ?v0)) (f4 f8 ?v1)) (f4 f8 (f4 (f5 f6 ?v0) ?v1)))))
(assert (forall ((?v0 S2) (?v1 S2)) (= (f4 f8 (f4 (f5 f6 ?v0) ?v1)) (f4 (f5 f6 (f4 f8 ?v0)) (f4 f8 ?v1)))))
(assert (forall ((?v0 S2) (?v1 S2) (?v2 S2)) (= (f4 (f5 f7 (f4 f8 ?v0)) (f4 (f5 f7 (f4 f8 ?v1)) ?v2)) (f4 (f5 f7 (f4 f8 (f4 (f5 f7 ?v0) ?v1))) ?v2))))
(assert (forall ((?v0 S2) (?v1 S2)) (= (f4 (f5 f7 (f4 f8 ?v0)) (f4 f8 ?v1)) (f4 f8 (f4 (f5 f7 ?v0) ?v1)))))
(assert (forall ((?v0 S2) (?v1 S2)) (= (f4 f8 (f4 (f5 f7 ?v0) ?v1)) (f4 (f5 f7 (f4 f8 ?v0)) (f4 f8 ?v1)))))
(assert (forall ((?v0 S2) (?v1 S2)) (= (f4 (f5 f7 (f4 f10 ?v0)) (f4 f9 ?v1)) (f4 f10 (f4 (f5 f7 ?v0) ?v1)))))
(assert (forall ((?v0 S2) (?v1 S2)) (= (f4 (f5 f7 (f4 f9 ?v0)) (f4 f10 ?v1)) (f4 f10 (f4 (f5 f7 ?v0) ?v1)))))
(assert (forall ((?v0 S2)) (= (f4 f10 ?v0) (f4 (f5 f7 (f4 (f5 f7 f13) ?v0)) ?v0))))
(assert (forall ((?v0 S6)) (let ((?v_0 (f14 f15 ?v0))) (= (f4 f8 ?v_0) ?v_0))))
(assert (forall ((?v0 S6)) (= (f23 f24 (f14 f15 ?v0)) (f19 f28 ?v0))))
(assert (forall ((?v0 S2)) (let ((?v_0 (f4 f8 ?v0))) (= (f4 f8 (f4 f9 ?v0)) (f4 (f5 f7 (f4 (f5 f7 f27) ?v_0)) ?v_0)))))
(assert (forall ((?v0 S2)) (let ((?v_0 (f4 f8 ?v0))) (= (f4 f8 (f4 f10 ?v0)) (f4 (f5 f7 (f4 (f5 f7 f13) ?v_0)) ?v_0)))))
(assert (forall ((?v0 S2)) (= (f4 (f5 f6 (f4 f8 (f4 f10 f11))) ?v0) ?v0)))
(assert (forall ((?v0 S2)) (= (f4 (f5 f6 ?v0) (f4 f8 (f4 f10 f11))) ?v0)))
(assert (= (f4 f8 (f4 f10 f11)) f13))
(assert (= (f23 f24 (f4 f10 f11)) f22))
(assert (= (f4 f8 (f4 f10 f11)) f13))
(assert (= (f26 f18 (f4 (f5 f7 (f4 (f5 f6 (f4 f8 (f4 f9 (f4 f9 (f4 f10 f11))))) f12)) f13)) f1))
(assert (= (f17 (f4 f8 (f4 f9 (f4 f10 f11)))) f1))
(assert (let ((?v_0 (f4 f9 (f4 f10 f11)))) (= (f4 f8 ?v_0) (f14 f15 (f23 f24 ?v_0)))))
(assert (let ((?v_0 (f4 f9 (f4 f10 f11)))) (= (f4 (f5 f7 (f14 (f29 f30 f31) (f23 f24 ?v_0))) f13) (f4 (f5 f6 (f4 (f5 f7 (f4 (f5 f6 (f4 f8 (f4 f9 ?v_0))) f12)) f13)) f18))))
(assert (let ((?v_0 (f4 f10 (f4 f10 f11)))) (= (f4 f8 ?v_0) (f14 f15 (f23 f24 ?v_0)))))
(assert (= f13 (f4 f8 (f4 f10 f11))))
(assert (=> (= f18 f13) (exists ((?v0 S2) (?v1 S2)) (let ((?v_1 (f4 f9 (f4 f10 f11)))) (let ((?v_0 (f23 f24 ?v_1))) (= (f4 (f5 f7 (f14 (f29 f30 ?v0) ?v_0)) (f14 (f29 f30 ?v1) ?v_0)) (f4 (f5 f7 (f4 (f5 f6 (f4 f8 (f4 f9 ?v_1))) f12)) f13)))))))
(assert (= (f4 (f5 f32 (f4 f8 f33)) (f4 (f5 f7 (f4 (f5 f6 (f4 f8 (f4 f9 (f4 f9 (f4 f10 f11))))) f12)) f13)) f13))
(assert (forall ((?v0 S6)) (= (f19 (f20 f25 (f23 f24 (f4 f9 (f4 f10 f11)))) ?v0) (f19 (f20 f21 ?v0) ?v0))))
(assert (forall ((?v0 S6)) (= (f19 (f20 f25 ?v0) (f23 f24 (f4 f9 (f4 f10 f11)))) (f19 (f20 f21 ?v0) ?v0))))
(assert (= (f19 (f20 f21 f22) f22) (f23 f24 (f4 f9 (f4 f10 f11)))))
(assert (= (f26 f27 (f4 (f5 f7 (f4 (f5 f6 (f4 f8 (f4 f9 (f4 f9 (f4 f10 f11))))) f12)) f13)) f1))
(assert (=> (forall ((?v0 S2)) (let ((?v_0 (f4 f9 (f4 f10 f11)))) (=> (= (f4 (f5 f7 (f14 (f29 f30 f31) (f23 f24 ?v_0))) f13) (f4 (f5 f6 (f4 (f5 f7 (f4 (f5 f6 (f4 f8 (f4 f9 ?v_0))) f12)) f13)) ?v0)) false))) false))
(assert (= (= f33 f33) true))
(assert (= (= (f26 f33 f33) f1) false))
(assert (= (= (f26 f33 f27) f1) true))
(assert (forall ((?v0 S2) (?v1 S2)) (or (= (f26 ?v0 ?v1) f1) (or (= ?v0 ?v1) (= (f26 ?v1 ?v0) f1)))))
(assert (forall ((?v0 S2) (?v1 S6) (?v2 S6)) (let ((?v_0 (f29 f30 ?v0))) (= (f14 (f29 f30 (f14 ?v_0 ?v1)) ?v2) (f14 ?v_0 (f19 (f20 f25 ?v1) ?v2))))))
(assert (forall ((?v0 S2) (?v1 S2)) (=> (= (f26 f27 ?v0) f1) (=> (= (f26 f27 (f4 (f5 f6 ?v0) ?v1)) f1) (= (f26 f27 ?v1) f1)))))
(assert (forall ((?v0 S2) (?v1 S2)) (= (= (f26 (f4 f8 ?v0) (f4 f8 ?v1)) f1) (= (f26 ?v0 ?v1) f1))))
(assert (forall ((?v0 S2)) (= (= (f26 (f4 f10 ?v0) f33) f1) (= (f26 ?v0 f33) f1))))
(assert (forall ((?v0 S2)) (= (= (f26 f33 (f4 f10 ?v0)) f1) (= (f26 f33 ?v0) f1))))
(assert (= (= (f26 f11 f33) f1) false))
(assert (= (= (f26 f33 f11) f1) true))
(assert (forall ((?v0 S2)) (= (= (f26 f33 (f4 f9 ?v0)) f1) (= (f26 f33 ?v0) f1))))
(assert (forall ((?v0 S2)) (= (= (f26 (f4 f10 ?v0) f27) f1) (= (f26 ?v0 f27) f1))))
(assert (= (= (f26 f11 f27) f1) false))
(assert (forall ((?v0 S2)) (= (= (f26 (f4 f9 ?v0) f27) f1) (= (f26 ?v0 f27) f1))))
(assert (= (f26 f27 f13) f1))
(assert (forall ((?v0 S2) (?v1 S2) (?v2 S2)) (let ((?v_0 (f5 f6 ?v2))) (=> (= (f26 ?v0 ?v1) f1) (=> (= (f26 f27 ?v2) f1) (= (f26 (f4 ?v_0 ?v0) (f4 ?v_0 ?v1)) f1))))))
(assert (forall ((?v0 S6)) (not (= (f26 (f14 f15 ?v0) f27) f1))))
(assert (forall ((?v0 S2) (?v1 S2)) (=> (= (f26 f27 ?v0) f1) (= (= (f4 (f5 f6 ?v0) ?v1) f13) (and (= ?v0 f13) (= ?v1 f13))))))
(assert (forall ((?v0 S2)) (= (= (f26 (f4 (f5 f7 (f4 (f5 f7 f13) ?v0)) ?v0) f27) f1) (= (f26 ?v0 f27) f1))))
(assert (= (f4 f10 f33) f33))
(assert (forall ((?v0 S2)) (= (= f33 (f4 f10 ?v0)) (= f33 ?v0))))
(assert (forall ((?v0 S2)) (= (= (f4 f10 ?v0) f33) (= ?v0 f33))))
(assert (= (= f33 f11) false))
(assert (= (= f11 f33) false))
(assert (forall ((?v0 S2)) (= (= f33 (f4 f9 ?v0)) false)))
(assert (forall ((?v0 S2)) (= (= (f4 f9 ?v0) f33) false)))
(assert (forall ((?v0 S2) (?v1 S6) (?v2 S6)) (let ((?v_0 (f29 f30 ?v0))) (= (f14 ?v_0 (f19 (f20 f21 ?v1) ?v2)) (f4 (f5 f6 (f14 ?v_0 ?v1)) (f14 ?v_0 ?v2))))))
(assert (forall ((?v0 S2) (?v1 S2)) (= (= (f26 (f4 f10 ?v0) (f4 f10 ?v1)) f1) (= (f26 ?v0 ?v1) f1))))
(assert (forall ((?v0 S2) (?v1 S2)) (= (= (f26 (f4 f10 ?v0) (f4 f10 ?v1)) f1) (= (f26 ?v0 ?v1) f1))))
(assert (= (= (f26 f11 f11) f1) false))
(assert (forall ((?v0 S2) (?v1 S2)) (= (= (f26 (f4 f9 ?v0) (f4 f9 ?v1)) f1) (= (f26 ?v0 ?v1) f1))))
(assert (forall ((?v0 S2) (?v1 S2)) (= (= (f26 (f4 f9 ?v0) (f4 f9 ?v1)) f1) (= (f26 ?v0 ?v1) f1))))
(assert (forall ((?v0 S2) (?v1 S2)) (= (= (f26 (f4 f8 ?v0) (f4 f8 ?v1)) f1) (= (f26 ?v0 ?v1) f1))))
(assert (forall ((?v0 S2) (?v1 S2) (?v2 S2)) (=> (= (f26 ?v0 ?v1) f1) (= (f26 (f4 (f5 f7 ?v0) ?v2) (f4 (f5 f7 ?v1) ?v2)) f1))))
(assert (= f11 f27))
(assert (not (= f27 f13)))
(assert (forall ((?v0 S2)) (= (f4 (f5 f7 f27) ?v0) ?v0)))
(check-sat)
(exit)
